Minimize
	value: tt

Subject to
tt + 2000 s_1_1 > 0
tt - t_1_1 - 2000.000000 s_1_1 > -1994.721800
tt + 2000 s_2_1 > 0
tt - t_2_1 - 2000.000000 s_2_1 > -1988.738100
tt + 2000 s_1_2 > 0
tt - t_1_2 - 2000.000000 s_1_2 > -1955.118800
tt + 2000 s_2_2 > 0
tt - t_2_2 - 2000.000000 s_2_2 > -1925.269600
tt + 2000 s_1_3 > 0
tt - t_1_3 - 2000.000000 s_1_3 > -1987.332200
tt + 2000 s_2_3 > 0
tt - t_2_3 - 2000.000000 s_2_3 > -1984.338600
tt + 2000 s_1_4 > 0
tt - t_1_4 - 2000.000000 s_1_4 > -1973.237600
tt + 2000 s_2_4 > 0
tt - t_2_4 - 2000.000000 s_2_4 > -1956.236200
tt + 2000 s_1_5 > 0
tt - t_1_5 - 2038.498600 s_1_5 + 38.498600 s_1_4 > -1999.266700
tt + 2000 s_2_5 > 0
tt - t_2_5 - 2076.997200 s_2_5 + 76.997200 s_2_4 > -1998.137900
s_1_1 + s_2_1  = 1
s_1_2 + s_2_2  = 1
s_1_3 + s_2_3  = 1
s_1_4 + s_2_4  = 1
s_1_5 + s_2_5  = 1
t_1_1 - t_1_2 + 2000.000000 u_1_1_2 > 44.881200
t_1_2 - t_1_1 - 2000.000000 u_1_1_2 > -1994.721800
t_2_1 - t_2_2 + 2000.000000 u_2_1_2 > 74.730400
t_2_2 - t_2_1 - 2000.000000 u_2_1_2 > -1988.738100
t_1_1 - t_1_3 + 2000.000000 u_1_1_3 > 12.667800
t_1_3 - t_1_1 - 2000.000000 u_1_1_3 > -1994.721800
t_2_1 - t_2_3 + 2000.000000 u_2_1_3 > 15.661400
t_2_3 - t_2_1 - 2000.000000 u_2_1_3 > -1988.738100
t_1_1 - t_1_4 + 2000.000000 u_1_1_4 > 26.762400
t_1_4 - t_1_1 - 2000.000000 u_1_1_4 > -1994.721800
t_2_1 - t_2_4 + 2000.000000 u_2_1_4 > 43.763800
t_2_4 - t_2_1 - 2000.000000 u_2_1_4 > -1988.738100
t_1_5 - t_1_1 - 2000.000000 s_1_1 > -1992.221800
t_1_5 - t_2_1 - 2000.000000 s_2_1 > -1983.738100
t_2_5 - t_1_1 - 2000.000000 s_1_1 > -1992.221800
t_2_5 - t_2_1 - 2000.000000 s_2_1 > -1983.738100
t_1_2 - t_1_1 + 2000.000000 u_1_2_1 > 5.278200
t_1_1 - t_1_2 - 2000.000000 u_1_2_1 > -1955.118800
t_2_2 - t_2_1 + 2000.000000 u_2_2_1 > 11.261900
t_2_1 - t_2_2 - 2000.000000 u_2_2_1 > -1925.269600
t_1_2 - t_1_3 + 2000.000000 u_1_2_3 > 12.667800
t_1_3 - t_1_2 - 2000.000000 u_1_2_3 > -1955.118800
t_2_2 - t_2_3 + 2000.000000 u_2_2_3 > 15.661400
t_2_3 - t_2_2 - 2000.000000 u_2_2_3 > -1925.269600
t_1_2 - t_1_4 + 2000.000000 u_1_2_4 > 26.762400
t_1_4 - t_1_2 - 2000.000000 u_1_2_4 > -1955.118800
t_2_2 - t_2_4 + 2000.000000 u_2_2_4 > 43.763800
t_2_4 - t_2_2 - 2000.000000 u_2_2_4 > -1925.269600
t_1_5 - t_1_2 - 2000.000000 s_1_2 > -1952.618800
t_1_5 - t_2_2 - 2000.000000 s_2_2 > -1920.269600
t_2_5 - t_1_2 - 2000.000000 s_1_2 > -1952.618800
t_2_5 - t_2_2 - 2000.000000 s_2_2 > -1920.269600
t_1_3 - t_1_1 + 2000.000000 u_1_3_1 > 5.278200
t_1_1 - t_1_3 - 2000.000000 u_1_3_1 > -1987.332200
t_2_3 - t_2_1 + 2000.000000 u_2_3_1 > 11.261900
t_2_1 - t_2_3 - 2000.000000 u_2_3_1 > -1984.338600
t_1_3 - t_1_2 + 2000.000000 u_1_3_2 > 44.881200
t_1_2 - t_1_3 - 2000.000000 u_1_3_2 > -1987.332200
t_2_3 - t_2_2 + 2000.000000 u_2_3_2 > 74.730400
t_2_2 - t_2_3 - 2000.000000 u_2_3_2 > -1984.338600
t_1_3 - t_1_4 + 2000.000000 u_1_3_4 > 26.762400
t_1_4 - t_1_3 - 2000.000000 u_1_3_4 > -1987.332200
t_2_3 - t_2_4 + 2000.000000 u_2_3_4 > 43.763800
t_2_4 - t_2_3 - 2000.000000 u_2_3_4 > -1984.338600
t_1_5 - t_1_3 - 2000.000000 s_1_3 > -1984.832200
t_1_5 - t_2_3 - 2000.000000 s_2_3 > -1979.338600
t_2_5 - t_1_3 - 2000.000000 s_1_3 > -1984.832200
t_2_5 - t_2_3 - 2000.000000 s_2_3 > -1979.338600
t_1_4 - t_1_1 + 2000.000000 u_1_4_1 > 5.278200
t_1_1 - t_1_4 - 2000.000000 u_1_4_1 > -1973.237600
t_2_4 - t_2_1 + 2000.000000 u_2_4_1 > 11.261900
t_2_1 - t_2_4 - 2000.000000 u_2_4_1 > -1956.236200
t_1_4 - t_1_2 + 2000.000000 u_1_4_2 > 44.881200
t_1_2 - t_1_4 - 2000.000000 u_1_4_2 > -1973.237600
t_2_4 - t_2_2 + 2000.000000 u_2_4_2 > 74.730400
t_2_2 - t_2_4 - 2000.000000 u_2_4_2 > -1956.236200
t_1_4 - t_1_3 + 2000.000000 u_1_4_3 > 12.667800
t_1_3 - t_1_4 - 2000.000000 u_1_4_3 > -1973.237600
t_2_4 - t_2_3 + 2000.000000 u_2_4_3 > 15.661400
t_2_3 - t_2_4 - 2000.000000 u_2_4_3 > -1956.236200
t_1_5 - t_1_4 - 2000.000000 s_1_4 > -1970.737600
t_1_5 - t_2_4 - 2000.000000 s_2_4 > -1951.236200
t_2_5 - t_1_4 - 2000.000000 s_1_4 > -1970.737600
t_2_5 - t_2_4 - 2000.000000 s_2_4 > -1951.236200
t_1_5 - t_1_1 - 2000.000000 s_1_1 > -1992.221800
t_1_5 - t_2_1 - 2000.000000 s_2_1 > -1983.738100
t_2_5 - t_1_1 - 2000.000000 s_1_1 > -1992.221800
t_2_5 - t_2_1 - 2000.000000 s_2_1 > -1983.738100
t_1_5 - t_1_2 - 2000.000000 s_1_2 > -1952.618800
t_1_5 - t_2_2 - 2000.000000 s_2_2 > -1920.269600
t_2_5 - t_1_2 - 2000.000000 s_1_2 > -1952.618800
t_2_5 - t_2_2 - 2000.000000 s_2_2 > -1920.269600
t_1_5 - t_1_3 - 2000.000000 s_1_3 > -1984.832200
t_1_5 - t_2_3 - 2000.000000 s_2_3 > -1979.338600
t_2_5 - t_1_3 - 2000.000000 s_1_3 > -1984.832200
t_2_5 - t_2_3 - 2000.000000 s_2_3 > -1979.338600
t_1_5 - t_1_4 - 2000.000000 s_1_4 > -1970.737600
t_1_5 - t_2_4 - 2000.000000 s_2_4 > -1951.236200
t_2_5 - t_1_4 - 2000.000000 s_1_4 > -1970.737600
t_2_5 - t_2_4 - 2000.000000 s_2_4 > -1951.236200
Binary
s_1_1
s_2_1
s_1_2
s_2_2
s_1_3
s_2_3
s_1_4
s_2_4
s_1_5
s_2_5
u_1_1_2
u_2_1_2
u_1_1_3
u_2_1_3
u_1_1_4
u_2_1_4
u_1_2_1
u_2_2_1
u_1_2_3
u_2_2_3
u_1_2_4
u_2_2_4
u_1_3_1
u_2_3_1
u_1_3_2
u_2_3_2
u_1_3_4
u_2_3_4
u_1_4_1
u_2_4_1
u_1_4_2
u_2_4_2
u_1_4_3
u_2_4_3

End
